Set parameter TSPort to value 51199
Set parameter TokenServer to value "open-license1.lanl.gov"
Set parameter TimeLimit to value 4096
Set parameter Threads to value 1
Gurobi Optimizer version 10.0.3 build v10.0.3rc0 (linux64)

CPU model: Intel(R) Xeon(R) CPU E5-2695 v4 @ 2.10GHz, instruction set [SSE2|AVX|AVX2]
Thread count: 36 physical cores, 72 logical processors, using up to 1 threads

Optimize a model with 0 rows, 1532 columns and 0 nonzeros
Model fingerprint: 0x0eac3bf4
Model has 6829 quadratic objective terms
Variable types: 0 continuous, 1532 integer (1532 binary)
Coefficient statistics:
  Matrix range     [0e+00, 0e+00]
  Objective range  [2e+00, 3e+01]
  QObjective range [8e+00, 8e+00]
  Bounds range     [1e+00, 1e+00]
  RHS range        [0e+00, 0e+00]
Found heuristic solution: objective 0.0000000
Found heuristic solution: objective -2600.000000
Found heuristic solution: objective -9112.000000
Found heuristic solution: objective -9186.000000
Presolve time: 0.29s
Presolved: 6829 rows, 8361 columns, 20487 nonzeros
Variable types: 0 continuous, 8361 integer (8361 binary)

Root relaxation: objective -1.278000e+04, 2185 iterations, 0.04 seconds (0.01 work units)

    Nodes    |    Current Node    |     Objective Bounds      |     Work
 Expl Unexpl |  Obj  Depth IntInf | Incumbent    BestBd   Gap | It/Node Time

     0     0 -12780.000    0 1532 -9186.0000 -12780.000  39.1%     -    0s
     0     0 -11852.000    0 1998 -9186.0000 -11852.000  29.0%     -    0s
     0     0 -11801.000    0 2030 -9186.0000 -11801.000  28.5%     -    1s
     0     0 -11797.000    0 2035 -9186.0000 -11797.000  28.4%     -    1s
     0     0 -11539.542    0 2261 -9186.0000 -11539.542  25.6%     -    1s
     0     0 -11539.542    0 2233 -9186.0000 -11539.542  25.6%     -    2s
     0     2 -11539.375    0 2220 -9186.0000 -11539.375  25.6%     -    2s
   173   175 -10814.500   87 2738 -9186.0000 -11525.042  25.5%   115    5s
   591   593 -9564.0000  297 2882 -9186.0000 -11525.042  25.5%  85.0   10s
   810   784 -10303.000  161 2553 -9186.0000 -11104.167  20.9%  72.8   16s
   818   789 -9477.0000  318 3299 -9186.0000 -10764.568  17.2%  72.1   29s
   819   790 -9612.5000  287 3477 -9186.0000 -10726.789  16.8%  72.0   35s
   827   795 -10303.000  161 3690 -9186.0000 -10712.877  16.6%  71.3   40s
   828   796 -10546.572   75 4028 -9186.0000 -10546.572  14.8%  71.2   63s
   829   796 -10282.000  164 4355 -9186.0000 -10520.170  14.5%  71.1   77s
   830   797 -10511.978  105 4445 -9186.0000 -10511.978  14.4%  71.1   82s
   831   798 -9837.0000  239 4484 -9186.0000 -10509.306  14.4%  71.0   85s
   840   804 -9905.0000  225 4906 -9186.0000 -10382.879  13.0%  70.2  122s
   841   804 -9398.6667  336 5206 -9186.0000 -10354.354  12.7%  70.1  138s
   842   805 -10348.279  133 5325 -9186.0000 -10348.279  12.7%  70.0  145s
   844   806 -10084.500  194 5419 -9186.0000 -10345.512  12.6%  69.9  150s
   849   810 -9614.5000  286 5497 -9186.0000 -10344.663  12.6%  69.5  155s
   852   812 -9394.6667  338 5813 -9186.0000 -10244.151  11.5%  69.2  200s
   853   812 -9199.6667  393 6045 -9186.0000 -10223.508  11.3%  69.1  228s
   854   813 -10186.000  178 6117 -9186.0000 -10219.611  11.3%  69.1  237s
   855   814 -9608.5000  288 6207 -9186.0000 -10218.657  11.2%  69.0  241s
   858   816 -10218.111   29 6290 -9186.0000 -10218.111  11.2%  68.7  245s
   862   818 -9883.0000  228 6557 -9186.0000 -10151.900  10.5%  68.4  298s
   863   819 -9284.6667  368 6742 -9186.0000 -10140.566  10.4%  68.3  320s
   864   820 -10137.560   81 6758 -9186.0000 -10137.560  10.4%  68.3  332s
   865   820 -9950.0000  217 6789 -9186.0000 -10137.025  10.4%  68.2  336s
   867   822 -10136.337  156 6853 -9186.0000 -10136.337  10.3%  68.0  341s
   871   824 -10105.999   10 6815 -9186.0000 -10105.999  10.0%  67.7  384s
   872   825 -9586.5000  292 6864 -9186.0000 -10099.762  9.95%  67.6  405s
   873   826 -9363.6667  347 6931 -9186.0000 -10098.438  9.93%  67.6  411s
   874   826 -9765.5000  255 6900 -9186.0000 -10098.041  9.93%  67.5  416s
   879   830 -9593.0000  291 6965 -9186.0000 -10097.894  9.93%  67.1  421s
   880   830 -9632.5000  281 6902 -9186.0000 -10081.997  9.75%  67.0  451s
   881   831 -10078.230  134 6992 -9186.0000 -10078.230  9.71%  66.9  465s
   882   832 -10057.500  199 7013 -9186.0000 -10077.462  9.70%  66.9  472s
   883   832 -10077.150   31 7046 -9186.0000 -10077.150  9.70%  66.8  475s
   887   835 -10077.000    3 7095 -9186.0000 -10077.000  9.70%  66.5  480s
   888   836 -9235.6667  384 6991 -9186.0000 -10063.947  9.56%  66.4  508s
   889   836 -10061.017  184 7023 -9186.0000 -10061.017  9.53%  66.3  524s
   890   837 -10060.428   85 7057 -9186.0000 -10060.428  9.52%  66.3  528s
   891   838 -9404.3333  334 7076 -9186.0000 -10060.268  9.52%  66.2  530s
   896   841 -9669.5000  272 7040 -9186.0000 -10047.012  9.37%  65.8  560s
   897   842 -10043.500  201 7091 -9186.0000 -10044.271  9.34%  65.7  574s
   898   842 -10043.847  103 7123 -9186.0000 -10043.847  9.34%  65.7  577s
   900   844 -9835.0000  240 7161 -9186.0000 -10043.701  9.34%  65.5  580s
   903   846 -9445.0000  325 7116 -9186.0000 -10031.575  9.21%  65.3  613s
   904   846 -10029.058  156 7188 -9186.0000 -10029.058  9.18%  65.2  625s
   906   848 -9354.6667  348 7223 -9186.0000 -10028.464  9.17%  65.1  631s
   910   850 -10016.229  161 7177 -9186.0000 -10016.229  9.04%  64.8  665s
   911   851 -10014.409  132 7207 -9186.0000 -10014.409  9.02%  64.7  675s
   913   852 -9602.5000  289 7289 -9186.0000 -10013.871  9.01%  64.6  680s
   917   855 -10006.913  149 7193 -9186.0000 -10006.913  8.94%  64.3  706s
   918   856 -9477.0000  318 7240 -9186.0000 -10004.774  8.91%  64.2  717s
   919   856 -9612.5000  287 7248 -9186.0000 -10004.444  8.91%  64.2  721s
   923   859 -9814.0000  247 7271 -9186.0000 -10004.193  8.91%  63.9  725s
   925   860 -9434.0000  327 7218 -9186.0000 -9998.0587  8.84%  63.8  747s
   926   861 -9996.5890   80 7284 -9186.0000 -9996.5890  8.82%  63.7  757s
   927   862 -9996.2289  161 7310 -9186.0000 -9996.2289  8.82%  63.6  760s
   932   865 -9989.3369   38 7261 -9186.0000 -9989.3369  8.75%  63.3  786s
   933   866 -9477.0000  318 7301 -9186.0000 -9987.8348  8.73%  63.2  796s
   935   867 -9354.6667  348 7336 -9186.0000 -9987.4021  8.72%  63.1  801s
   940   870 -9905.0000  225 7326 -9186.0000 -9981.1281  8.66%  62.7  825s
   941   871 -9398.6667  336 7361 -9186.0000 -9979.9345  8.64%  62.7  832s
   942   872 -9979.5970  133 7372 -9186.0000 -9979.5970  8.64%  62.6  836s
   946   874 -9423.0000  330 7318 -9186.0000 -9973.7048  8.58%  62.3  864s
   947   875 -9460.0000  321 7355 -9186.0000 -9972.2109  8.56%  62.3  875s
   949   876 -9614.5000  286 7438 -9186.0000 -9971.8265  8.55%  62.1  880s
   953   879 -9199.6667  393 7338 -9186.0000 -9968.0788  8.51%  61.9  900s
   954   880 -9967.0748  178 7404 -9186.0000 -9967.0748  8.50%  61.8  907s
   955   880 -9608.5000  288 7411 -9186.0000 -9966.7033  8.50%  61.8  912s
   957   882 -9381.6667  340 7451 -9186.0000 -9966.5259  8.50%  61.6  915s
   960   884 -9640.5000  279 7388 -9186.0000 -9963.4138  8.46%  61.4  934s
   961   884 -9962.6397   38 7432 -9186.0000 -9962.6397  8.45%  61.4  940s
   963   886 -9284.6667  368 7440 -9186.0000 -9962.4083  8.45%  61.2  945s
   976   896 -9354.6667  348 2707 -9186.0000 -9962.3844  8.45%  1042  950s
   977   896 -9923.0000  222 4144 -9186.0000 -9962.3844  8.45%  1041  971s
   978   897 -9962.3844   18 6443 -9186.0000 -9962.3844  8.45%  1040 1041s
   979   898 -9593.0000  291 7138 -9186.0000 -9962.3844  8.45%  1039 1109s
   980   898 -9632.5000  281 7304 -9186.0000 -9962.3844  8.45%  1038 1143s
   981   899 -9962.3844  134 7329 -9186.0000 -9962.3844  8.45%  1036 1156s
   982   900 -9962.3844  199 7363 -9186.0000 -9962.3844  8.45%  1035 1162s
   984   901 -9741.5000  259 7412 -9186.0000 -9962.3844  8.45%  1033 1166s
   988   904 -9235.6667  384 7433 -9186.0000 -9962.3844  8.45%  1029 1171s
   989   904 -9952.2994  184 7425 -9186.0000 -9952.2994  8.34%  1028 1204s
   990   905 -9951.3718   85 7446 -9186.0000 -9951.3718  8.33%  1027 1210s
   992   906 -9805.0000  248 7463 -9186.0000 -9951.1436  8.33%  1025 1215s
   995   908 -9945.4304  144 7415 -9186.0000 -9945.4304  8.27%  1022 1242s
   996   909 -9669.5000  272 7443 -9186.0000 -9944.1047  8.25%  1021 1252s
   997   910 -9943.8703  201 7458 -9186.0000 -9943.8703  8.25%  1020 1255s
  1002   913 -9943.7383   99 7502 -9186.0000 -9943.7383  8.25%  1015 1261s
  1003   914 -9445.0000  325 7449 -9186.0000 -9938.3897  8.19%  1014 1283s
  1004   914 -9937.4220  156 7477 -9186.0000 -9937.4220  8.18%  1013 1292s
  1005   915 -9805.0000  248 7482 -9186.0000 -9937.1116  8.18%  1012 1296s
  1009   918 -9936.9442  137 7518 -9186.0000 -9936.9442  8.17%  1008 1301s
  1010   918 -9932.4765  161 7488 -9186.0000 -9932.4765  8.13%  1007 1324s
  1011   919 -9931.4824  132 7501 -9186.0000 -9931.4824  8.12%  1006 1333s
  1012   920 -9931.1996  189 7529 -9186.0000 -9931.1996  8.11%  1005 1337s
  1015   922 -9931.1253   61 7547 -9186.0000 -9931.1253  8.11%  1002 1341s
  1016   922 -9230.6667  386 7502 -9186.0000 -9926.8892  8.07%  1001 1364s
  1017   923 -9926.0148  149 7541 -9186.0000 -9926.0148  8.06%  1000 1373s
  1018   924 -9477.0000  318 7543 -9186.0000 -9925.8154  8.05%   999 1376s
  1021   926 -9925.7496   30 7565 -9186.0000 -9925.7496  8.05%   996 1381s
  1022   926 -9921.2445  209 7543 -9186.0000 -9921.2445  8.00%   995 1406s
  1023   927 -9814.0000  247 7588 -9186.0000 -9920.3077  7.99%   994 1414s
  1024   928 -9920.1203  108 7592 -9186.0000 -9920.1203  7.99%   993 1418s
  1025   928 -9434.0000  327 7604 -9186.0000 -9920.0230  7.99%   992 1420s
  1028   930 -9916.7157   75 7569 -9186.0000 -9916.7157  7.95%   989 1443s
  1029   931 -9916.0160  164 7612 -9186.0000 -9916.0160  7.95%   988 1451s
  1031   932 -9837.0000  239 7635 -9186.0000 -9915.7750  7.94%   986 1455s
  1035   935 -9354.6667  348 7612 -9186.0000 -9912.3429  7.91%   982 1480s
  1036   936 -9911.4015   57 7611 -9186.0000 -9911.4015  7.90%   981 1490s
  1039   938 -9551.0000  305 7658 -9186.0000 -9911.1850  7.89%   979 1495s
  1041   939 -9398.6667  336 7624 -9186.0000 -9908.4159  7.86%   977 1516s
  1042   940 -9907.8619  133 7649 -9186.0000 -9907.8619  7.86%   976 1524s
  1043   940 -9874.0000  230 7679 -9186.0000 -9907.7450  7.86%   975 1526s
  1047   943 -9460.0000  321 7704 -9186.0000 -9907.6780  7.86%   971 1531s
  1048   944 -9905.5842  138 7616 -9186.0000 -9905.5842  7.83%   970 1547s
  1049   944 -9614.5000  286 7659 -9186.0000 -9904.7882  7.82%   969 1556s
  1051   946 -9765.5000  255 7688 -9186.0000 -9904.5936  7.82%   967 1561s
  1054   948 -9901.9923  178 7664 -9186.0000 -9901.9923  7.79%   965 1582s
  1055   948 -9608.5000  288 7667 -9186.0000 -9901.4617  7.79%   964 1589s
  1056   949 -9901.3373  222 7684 -9186.0000 -9901.3373  7.79%   963 1592s
  1059   951 -9901.2796   65 7700 -9186.0000 -9901.2796  7.79%   960 1596s
  1060   952 -9640.5000  279 7666 -9186.0000 -9898.8938  7.76%   959 1614s
  1061   952 -9898.2986   38 7708 -9186.0000 -9898.2986  7.75%   958 1621s
  1063   954 -9284.6667  368 7707 -9186.0000 -9898.1625  7.75%   957 1626s
  1066   956 -9896.4017   29 7682 -9186.0000 -9896.4017  7.73%   954 1644s
  1067   956 -9895.8300  156 7715 -9186.0000 -9895.8300  7.73%   953 1654s
  1068   957 -9895.7108   94 7724 -9186.0000 -9895.7108  7.73%   952 1657s
  1071   959 -9895.6718   10 7740 -9186.0000 -9895.6718  7.73%   949 1661s
  1072   960 -9586.5000  292 7684 -9186.0000 -9893.8615  7.71%   949 1677s
  1073   960 -9363.6667  347 7695 -9186.0000 -9893.4895  7.70%   948 1683s
  1074   961 -9765.5000  255 7722 -9186.0000 -9893.4180  7.70%   947 1685s
  1077   963 -9892.4348  222 7722 -9186.0000 -9892.4348  7.69%   944 1699s
  1078   964 -9892.2185   18 7743 -9186.0000 -9892.2185  7.69%   943 1703s
  1079   964 -9593.0000  291 7753 -9186.0000 -9892.1254  7.69%   942 1706s
  1083   967 -9890.4383   31 7736 -9186.0000 -9890.4383  7.67%   939 1725s
  1084   968 -9741.5000  259 7744 -9186.0000 -9890.0854  7.66%   938 1731s
  1088   970 -9235.6667  384 7772 -9186.0000 -9889.9816  7.66%   935 1736s
  1089   971 -9888.4628  184 7708 -9186.0000 -9888.4628  7.65%   934 1750s
  1090   972 -9888.0303   85 7740 -9186.0000 -9888.0303  7.64%   933 1756s
  1092   973 -9805.0000  248 7750 -9186.0000 -9887.8512  7.64%   931 1761s
  1097   976 -9886.9595  201 7728 -9186.0000 -9886.9595  7.63%   927 1775s
  1099   978 -9239.6667  382 7766 -9186.0000 -9886.7043  7.63%   925 1780s
  1102   980 -9886.0634   99 7749 -9186.0000 -9886.0634  7.62%   923 1790s
  1104   981 -9885.8422  156 7771 -9186.0000 -9885.8422  7.62%   921 1796s
  1107   983 -9885.4998  206 7758 -9186.0000 -9885.4998  7.61%   919 1804s
  1108   984 -9885.4052   88 7778 -9186.0000 -9885.4052  7.61%   918 1806s
  1111   986 -9885.3744  132 7789 -9186.0000 -9885.3744  7.61%   915 1810s
  1112   986 -9884.7410  189 7765 -9186.0000 -9884.7410  7.61%   914 1817s
  1113   987 -9602.5000  289 7785 -9186.0000 -9884.5857  7.60%   914 1821s
  1116   989 -9230.6667  386 7792 -9186.0000 -9884.5197  7.60%   911 1825s
  1117   990 -9883.7963  149 7762 -9186.0000 -9883.7963  7.60%   910 1834s
  1118   990 -9477.0000  318 7774 -9186.0000 -9883.6161  7.59%   909 1837s
  1120   992 -9883.5679  138 7794 -9186.0000 -9883.5679  7.59%   908 1840s
  1123   994 -9814.0000  247 7749 -9186.0000 -9882.8533  7.59%   905 1851s
  1124   994 -9882.6012  108 7785 -9186.0000 -9882.6012  7.58%   905 1856s
  1128   997 -9882.5291   75 7797 -9186.0000 -9882.5291  7.58%   901 1861s
  1129   998 -9882.0301  164 7765 -9186.0000 -9882.0301  7.58%   901 1869s
  1130   998 -9881.9197  105 7789 -9186.0000 -9881.9197  7.58%   900 1872s
  1133  1000 -9477.0000  318 7798 -9186.0000 -9881.8946  7.58%   897 1875s
  1134  1001 -9881.3937   16 7763 -9186.0000 -9881.3937  7.57%   897 1881s
  1136  1002 -9881.2886   57 7797 -9186.0000 -9881.2886  7.57%   895 1885s
  1139  1004 -9551.0000  305 7740 -9186.0000 -9880.2782  7.56%   893 1898s
  1140  1005 -9880.0312  225 7782 -9186.0000 -9880.0312  7.56%   892 1902s
  1142  1006 -9879.9701  133 7793 -9186.0000 -9879.9701  7.55%   890 1905s
  1144  1008 -9878.9408  194 7766 -9186.0000 -9878.9408  7.54%   889 1917s
  1145  1008 -9878.7372   53 7779 -9186.0000 -9878.7372  7.54%   888 1921s
  1148  1010 -9878.6422  138 7811 -9186.0000 -9878.6422  7.54%   886 1925s
  1150  1012 -9404.3333  334 7742 -9186.0000 -9877.7513  7.53%   884 1937s
  1151  1012 -9765.5000  255 7779 -9186.0000 -9877.5922  7.53%   883 1940s
  1155  1015 -9608.5000  288 7810 -9186.0000 -9877.5398  7.53%   880 1945s
  1156  1016 -9877.0495  222 7786 -9186.0000 -9877.0495  7.52%   880 1952s
  1157  1016 -9381.6667  340 7789 -9186.0000 -9876.7935  7.52%   879 1957s
  1159  1018 -9876.7231   65 7809 -9186.0000 -9876.7231  7.52%   877 1960s
  1162  1020 -9876.4842  228 7790 -9186.0000 -9876.4842  7.52%   875 1965s
  1164  1021 -9876.3442   81 7816 -9186.0000 -9876.3442  7.52%   874 1970s
  1167  1023 -9875.9956  156 7793 -9186.0000 -9875.9956  7.51%   871 1977s
  1168  1024 -9875.8768   94 7820 -9186.0000 -9875.8768  7.51%   871 1981s
  1172  1026 -9586.5000  292 7804 -9186.0000 -9875.6531  7.51%   868 1988s
  1173  1027 -9363.6667  347 7806 -9186.0000 -9875.5620  7.51%   867 1990s
  1176  1029 -9354.6667  348 7793 -9186.0000 -9875.1804  7.50%   865 1999s
  1177  1030 -9875.0534  222 7811 -9186.0000 -9875.0534  7.50%   864 2002s
  1180  1032 -9632.5000  281 7818 -9186.0000 -9875.0038  7.50%   862 2006s
  1181  1032 -9874.6876  134 7826 -9186.0000 -9874.6876  7.50%   861 2011s
  1183  1034 -9874.5717   31 7846 -9186.0000 -9874.5717  7.50%   860 2015s
  1186  1036 -9874.1487  192 7818 -9186.0000 -9874.1487  7.49%   857 2023s
  1187  1036 -9873.9743    3 7825 -9186.0000 -9873.9743  7.49%   857 2027s
  1190  1038 -9873.9240   85 7840 -9186.0000 -9873.9240  7.49%   854 2031s
  1191  1039 -9404.3333  334 7810 -9186.0000 -9873.6444  7.49%   854 2036s
  1195  1042 -9873.5405  144 7835 -9186.0000 -9873.5405  7.48%   851 2041s
  1196  1042 -9669.5000  272 7806 -9186.0000 -9873.0253  7.48%   850 2048s
  1197  1043 -9872.7876  201 7825 -9186.0000 -9872.7876  7.48%   849 2052s
  1199  1044 -9239.6667  382 7839 -9186.0000 -9872.7192  7.48%   848 2055s
  1202  1046 -9872.0531   99 7810 -9186.0000 -9872.0531  7.47%   846 2066s
  1204  1048 -9871.8731  156 7842 -9186.0000 -9871.8731  7.47%   845 2071s
  1207  1050 -9871.6459  206 7822 -9186.0000 -9871.6459  7.46%   842 2077s
  1209  1051 -9871.5701  137 7845 -9186.0000 -9871.5701  7.46%   841 2080s
  1212  1053 -9870.9625  189 7805 -9186.0000 -9870.9625  7.46%   839 2090s
  1214  1054 -9423.0000  330 7843 -9186.0000 -9870.7774  7.45%   838 2096s
  1218  1057 -9477.0000  318 7806 -9186.0000 -9870.1201  7.45%   835 2108s
  1219  1058 -9612.5000  287 7816 -9186.0000 -9869.9251  7.45%   834 2112s
  1222  1060 -9869.8854  209 7849 -9186.0000 -9869.8854  7.44%   832 2116s
  1223  1060 -9814.0000  247 7822 -9186.0000 -9869.5665  7.44%   831 2121s
  1225  1062 -9434.0000  327 7859 -9186.0000 -9869.4358  7.44%   830 2125s
  1228  1064 -9869.0946   75 7843 -9186.0000 -9869.0946  7.44%   828 2134s
  1229  1064 -9868.9490  164 7851 -9186.0000 -9868.9490  7.43%   827 2137s
  1231  1066 -9837.0000  239 7861 -9186.0000 -9868.8904  7.43%   826 2140s
  1233  1067 -9477.0000  318 7835 -9186.0000 -9868.6492  7.43%   825 2147s
  1235  1068 -9354.6667  348 7859 -9186.0000 -9868.5649  7.43%   823 2151s
  1238  1070 -9842.0000  238 7844 -9186.0000 -9868.3381  7.43%   821 2158s
  1239  1071 -9551.0000  305 7869 -9186.0000 -9868.2503  7.43%   821 2160s
  1242  1073 -9867.9518  133 7843 -9186.0000 -9867.9518  7.42%   819 2168s
  1243  1074 -9867.8633  230 7858 -9186.0000 -9867.8633  7.42%   818 2171s
  1247  1076 -9460.0000  321 7872 -9186.0000 -9867.8223  7.42%   815 2175s
  1249  1078 -9614.5000  286 7846 -9186.0000 -9867.5706  7.42%   814 2181s
  1253  1080 -9199.6667  393 7832 -9186.0000 -9867.2372  7.42%   811 2189s
  1254  1081 -9867.1596  178 7854 -9186.0000 -9867.1596  7.42%   811 2191s
  1257  1083 -9381.6667  340 7877 -9186.0000 -9867.1249  7.41%   809 2196s
  1259  1084 -9866.8849   65 7870 -9186.0000 -9866.8849  7.41%   808 2202s
  1262  1086 -9866.8605  228 7889 -9186.0000 -9866.8605  7.41%   806 2206s
  1263  1087 -9284.6667  368 7862 -9186.0000 -9866.7153  7.41%   805 2210s
  1267  1090 -9866.6165  156 7877 -9186.0000 -9866.6165  7.41%   803 2217s
  1268  1090 -9866.3676   94 7846 -9186.0000 -9866.3676  7.41%   802 2221s
  1270  1092 -9866.2506  109 7871 -9186.0000 -9866.2506  7.41%   801 2225s
  1274  1094 -9765.5000  255 7837 -9186.0000 -9865.9087  7.40%   798 2234s
  1275  1095 -9669.5000  272 7858 -9186.0000 -9865.8034  7.40%   797 2237s
  1278  1097 -9865.7706   18 7877 -9186.0000 -9865.7706  7.40%   796 2241s
  1279  1098 -9593.0000  291 7841 -9186.0000 -9865.5268  7.40%   795 2246s
  1281  1099 -9865.3954  134 7866 -9186.0000 -9865.3954  7.40%   794 2251s
  1284  1101 -9741.5000  259 7849 -9186.0000 -9865.1959  7.39%   792 2258s
  1285  1102 -9865.1423   75 7866 -9186.0000 -9865.1423  7.39%   791 2260s
  1289  1104 -9864.9079  184 7854 -9186.0000 -9864.9079  7.39%   789 2268s
  1290  1105 -9864.7991   85 7861 -9186.0000 -9864.7991  7.39%   788 2271s
  1293  1107 -9314.6667  359 7882 -9186.0000 -9864.7668  7.39%   786 2275s
  1294  1108 -9864.1474  191 7850 -9186.0000 -9864.1474  7.38%   786 2283s
  1295  1108 -9863.9985  144 7867 -9186.0000 -9863.9985  7.38%   785 2287s
  1297  1110 -9863.9480  201 7878 -9186.0000 -9863.9480  7.38%   784 2290s
  1300  1112 -9835.0000  240 7859 -9186.0000 -9863.7235  7.38%   782 2296s
  1302  1113 -9863.6201   99 7879 -9186.0000 -9863.6201  7.38%   781 2300s
  1306  1116 -9354.6667  348 7885 -9186.0000 -9863.5398  7.38%   779 2305s
  1308  1117 -9863.1642   88 7853 -9186.0000 -9863.1642  7.37%   777 2312s
  1309  1118 -9863.0550  137 7856 -9186.0000 -9863.0550  7.37%   777 2315s
  1314  1121 -9423.0000  330 7871 -9186.0000 -9862.9078  7.37%   774 2322s
  1317  1123 -9862.8693  149 7896 -9186.0000 -9862.8693  7.37%   772 2326s
  1318  1124 -9477.0000  318 7867 -9186.0000 -9862.4930  7.36%   771 2332s
  1319  1124 -9612.5000  287 7874 -9186.0000 -9862.3486  7.36%   771 2336s
  1322  1126 -9862.3153  209 7896 -9186.0000 -9862.3153  7.36%   769 2340s
  1323  1127 -9814.0000  247 7852 -9186.0000 -9861.8632  7.36%   769 2347s
  1325  1128 -9434.0000  327 7877 -9186.0000 -9861.7314  7.36%   767 2351s
  1328  1130 -9861.5147   75 7861 -9186.0000 -9861.5147  7.35%   766 2357s
  1329  1131 -9861.4100  164 7876 -9186.0000 -9861.4100  7.35%   765 2360s
  1333  1134 -9477.0000  318 7868 -9186.0000 -9861.2275  7.35%   763 2368s
  1334  1134 -9861.1775   16 7880 -9186.0000 -9861.1775  7.35%   762 2370s
  1338  1137 -9842.0000  238 7872 -9186.0000 -9860.9197  7.35%   760 2377s
  1339  1138 -9551.0000  305 7878 -9186.0000 -9860.7411  7.35%   759 2381s
  1343  1140 -9860.6739  230 7904 -9186.0000 -9860.6739  7.34%   757 2386s
  1344  1141 -9860.4054  194 7867 -9186.0000 -9860.4054  7.34%   757 2391s
  1346  1142 -9423.0000  330 7897 -9186.0000 -9860.2924  7.34%   755 2395s
  1349  1144 -9614.5000  286 7872 -9186.0000 -9859.8662  7.34%   754 2405s
  1351  1146 -9765.5000  255 7893 -9186.0000 -9859.6711  7.33%   753 2410s
  1355  1148 -9608.5000  288 7862 -9186.0000 -9859.2217  7.33%   750 2421s
  1357  1150 -9381.6667  340 7894 -9186.0000 -9859.0884  7.33%   749 2425s
  1360  1152 -9640.5000  279 7876 -9186.0000 -9858.8252  7.32%   748 2433s
  1361  1152 -9858.6646   38 7871 -9186.0000 -9858.6646  7.32%   747 2437s
  1364  1154 -9858.6133   81 7878 -9186.0000 -9858.6133  7.32%   745 2440s
  1366  1156 -9858.5197   29 7880 -9186.0000 -9858.5197  7.32%   744 2445s
  1370  1158 -9858.4631  109 7901 -9186.0000 -9858.4631  7.32%   742 2450s
  1372  1160 -9586.5000  292 7894 -9186.0000 -9858.2076  7.32%   741 2456s
  1375  1162 -9669.5000  272 7915 -9186.0000 -9858.1829  7.32%   739 2460s
  1377  1163 -9858.0039  222 7910 -9186.0000 -9858.0039  7.32%   738 2465s
  1381  1166 -9857.8506  134 7901 -9186.0000 -9857.8506  7.31%   736 2472s
  1384  1168 -9741.5000  259 7904 -9186.0000 -9857.8096  7.31%   735 2477s
  1386  1169 -9857.7118  192 7906 -9186.0000 -9857.7118  7.31%   734 2481s
  1389  1171 -9857.5912  184 7899 -9186.0000 -9857.5912  7.31%   732 2486s
  1392  1173 -9805.0000  248 7915 -9186.0000 -9857.5441  7.31%   730 2491s
  1396  1176 -9669.5000  272 7915 -9186.0000 -9857.4860  7.31%   728 2497s
  1397  1176 -9857.3181  201 7885 -9186.0000 -9857.3181  7.31%   728 2500s
  1399  1178 -9239.6667  382 7897 -9186.0000 -9857.2000  7.31%   727 2505s
  1403  1180 -9445.0000  325 7889 -9186.0000 -9857.0717  7.31%   725 2511s
  1407  1183 -9856.9765  206 7909 -9186.0000 -9856.9765  7.30%   723 2515s
  1409  1184 -9856.8100  137 7874 -9186.0000 -9856.8100  7.30%   722 2521s
  1412  1186 -9856.7616  189 7908 -9186.0000 -9856.7616  7.30%   720 2526s
  1413  1187 -9602.5000  289 7878 -9186.0000 -9856.5880  7.30%   720 2530s
  1416  1189 -9230.6667  386 7905 -9186.0000 -9856.5138  7.30%   718 2535s
  1420  1192 -9856.4281  138 7904 -9186.0000 -9856.4281  7.30%   716 2542s
  1422  1193 -9856.3752  209 7900 -9186.0000 -9856.3752  7.30%   715 2545s
  1430  1199 -9856.3478  105 1532 -9186.0000 -9856.3478  7.30%  1718 2550s
  1433  1201 -9477.0000  318 4263 -9186.0000 -9856.3478  7.30%  1714 2575s
  1434  1202 -9856.3478   16 6228 -9186.0000 -9856.3478  7.30%  1713 2642s
  1435  1203 -9354.6667  348 7344 -9186.0000 -9856.3478  7.30%  1712 2746s
  1436  1203 -9856.3478   57 7625 -9186.0000 -9856.3478  7.30%  1711 2824s
  1437  1204 -9856.3478   64 7762 -9186.0000 -9856.3478  7.30%  1710 2864s
  1438  1205 -9842.0000  238 7809 -9186.0000 -9856.3478  7.30%  1708 2882s
  1439  1205 -9551.0000  305 7831 -9186.0000 -9856.3478  7.30%  1707 2890s
  1441  1207 -9398.6667  336 7863 -9186.0000 -9856.3478  7.30%  1705 2896s
  1444  1209 -9856.3405  194 7877 -9186.0000 -9856.3405  7.30%  1701 2900s
  1448  1211 -9856.1772  138 7878 -9186.0000 -9856.1772  7.30%  1697 2906s
  1450  1213 -9404.3333  334 7876 -9186.0000 -9856.0698  7.29%  1694 2910s
  1453  1215 -9199.6667  393 7878 -9186.0000 -9855.9258  7.29%  1691 2916s
  1456  1217 -9855.8839  222 7880 -9186.0000 -9855.8839  7.29%  1687 2920s
  1460  1219 -9640.5000  279 7879 -9186.0000 -9855.7161  7.29%  1683 2926s
  1464  1222 -9855.6687   81 7879 -9186.0000 -9855.6687  7.29%  1678 2931s
  1467  1224 -9855.5554  156 7884 -9186.0000 -9855.5554  7.29%  1675 2935s
  1469  1225 -9855.4076  151 7867 -9186.0000 -9855.4076  7.29%  1672 2940s
  1473  1228 -9363.6667  347 7878 -9186.0000 -9855.2016  7.29%  1668 2947s
  1476  1230 -9354.6667  348 7896 -9186.0000 -9855.1669  7.28%  1664 2950s
  1479  1232 -9593.0000  291 7897 -9186.0000 -9855.1098  7.28%  1661 2955s
  1482  1234 -9855.0096  199 7899 -9186.0000 -9855.0096  7.28%  1658 2961s
  1484  1235 -9741.5000  259 7869 -9186.0000 -9854.8194  7.28%  1655 2965s
  1488  1238 -9235.6667  384 7864 -9186.0000 -9854.7005  7.28%  1651 2971s
  1491  1240 -9404.3333  334 7886 -9186.0000 -9854.6647  7.28%  1648 2976s
  1494  1242 -9854.5687  191 7877 -9186.0000 -9854.5687  7.28%  1644 2981s
  1495  1243 -9854.2709  144 7864 -9186.0000 -9854.2709  7.27%  1643 2986s
  1498  1245 -9854.1796  103 7885 -9186.0000 -9854.1796  7.27%  1640 2990s
  1500  1246 -9835.0000  240 7884 -9186.0000 -9854.0216  7.27%  1638 2995s
  1503  1248 -9445.0000  325 7872 -9186.0000 -9853.8560  7.27%  1635 3000s
  1507  1251 -9853.7377  206 7876 -9186.0000 -9853.7377  7.27%  1630 3005s
  1511  1253 -9853.4356  132 7854 -9186.0000 -9853.4356  7.27%  1626 3013s
  1512  1254 -9853.3029  189 7881 -9186.0000 -9853.3029  7.26%  1625 3016s
  1516  1257 -9230.6667  386 7877 -9186.0000 -9853.0339  7.26%  1621 3024s
  1517  1257 -9852.9502  149 7883 -9186.0000 -9852.9502  7.26%  1619 3027s
  1520  1259 -9852.5721  138 7870 -9186.0000 -9852.5721  7.26%  1616 3035s
  1524  1262 -9852.4227  108 7876 -9186.0000 -9852.4227  7.25%  1612 3040s
  1527  1264 -9852.1839  161 7847 -9186.0000 -9852.1839  7.25%  1609 3046s
  1529  1265 -9852.0433  164 7877 -9186.0000 -9852.0433  7.25%  1607 3050s
  1532  1267 -9851.8961   38 7863 -9186.0000 -9851.8961  7.25%  1604 3055s
  1536  1270 -9851.7529   57 7880 -9186.0000 -9851.7529  7.25%  1599 3061s
  1540  1273 -9851.6579  225 7892 -9186.0000 -9851.6579  7.25%  1595 3066s
  1544  1275 -9851.5338  194 7885 -9186.0000 -9851.5338  7.25%  1591 3072s
  1547  1277 -9460.0000  321 7897 -9186.0000 -9851.5084  7.24%  1588 3075s
  1551  1280 -9765.5000  255 7901 -9186.0000 -9851.3863  7.24%  1584 3080s
  1554  1282 -9851.1944  178 7892 -9186.0000 -9851.1944  7.24%  1581 3085s
  1558  1285 -9851.1448   29 7906 -9186.0000 -9851.1448  7.24%  1577 3090s
  1562  1287 -9851.1017  228 7871 -9186.0000 -9851.1017  7.24%  1573 3095s
  1563  1288 -9284.6667  368 7871 -9186.0000 -9851.1017  7.24%  1572 3363s
  1564  1291 -9848.3531   31 7823 -9186.0000 -9851.0512  7.24%  1902 3383s
  1565  1291 -9848.7731   31 7841 -9186.0000 -9848.7731  7.22%  1910 3399s
  1566  1292 -9846.3607   32 7801 -9186.0000 -9848.7590  7.21%  1916 3413s
  1567  1293 -9847.2286   32 7798 -9186.0000 -9848.3265  7.21%  1921 3424s
  1568  1293 -9845.5137   33 7741 -9186.0000 -9848.3265  7.21%  1927 3436s
  1569  1294 -9845.0952   33 7763 -9186.0000 -9848.3265  7.21%  1933 3450s
  1570  1295 -9842.0349   34 7665 -9186.0000 -9848.3265  7.21%  1941 3467s
  1571  1295 -9842.7327   34 7662 -9186.0000 -9848.3265  7.21%  1949 3483s
  1572  1296 -9841.0742   35 7647 -9186.0000 -9848.3265  7.21%  1955 3495s
  1573  1297 -9840.1838   35 7652 -9186.0000 -9848.3265  7.21%  1961 3508s
  1574  1297 -9837.9441   36 7643 -9186.0000 -9848.3265  7.21%  1964 3517s
  1575  1298 -9839.5003   36 7625 -9186.0000 -9848.3265  7.21%  1965 3524s
  1576  1299 -9838.1658   37 7629 -9186.0000 -9848.3265  7.21%  1968 3533s
  1577  1299 -9837.5127   37 7623 -9186.0000 -9848.3265  7.21%  1969 3539s
  1578  1300 -9836.4010   38 7626 -9186.0000 -9848.3265  7.21%  1970 3545s
  1579  1301 -9833.3775   38 7590 -9186.0000 -9848.3265  7.21%  1979 3564s
  1580  1301 -9834.4042   39 7593 -9186.0000 -9848.3265  7.21%  1979 3567s
  1581  1302 -9833.8508   39 7601 -9186.0000 -9848.3265  7.21%  1980 3572s
  1582  1303 -9832.1335   40 7573 -9186.0000 -9848.3265  7.21%  1982 3581s
  1583  1303 -9831.8864   40 7544 -9186.0000 -9848.3265  7.21%  1989 3597s
  1584  1304 -9830.2624   41 7535 -9186.0000 -9848.3265  7.21%  1991 3603s
  1585  1305 -9829.8245   41 7520 -9186.0000 -9848.3265  7.21%  1992 3611s
  1586  1305 -9828.1258   42 7496 -9186.0000 -9848.3265  7.21%  1997 3624s
  1587  1306 -9827.5087   42 7488 -9186.0000 -9848.3265  7.21%  1999 3631s
  1588  1307 -9826.3593   43 7476 -9186.0000 -9848.3265  7.21%  1999 3635s
  1590  1308 -9823.4507   44 7422 -9186.0000 -9848.3265  7.21%  2005 3653s
  1591  1309 -9824.5097   44 7438 -9186.0000 -9848.3265  7.21%  2006 3657s
  1592  1309 -9822.6168   45 7418 -9186.0000 -9848.3265  7.21%  2010 3667s
  1593  1310 -9821.2221   45 7412 -9186.0000 -9848.3265  7.21%  2011 3673s
  1594  1311 -9820.1503   46 7419 -9186.0000 -9848.3265  7.21%  2017 3686s
  1595  1311 -9819.5050   46 7402 -9186.0000 -9848.3265  7.21%  2023 3701s
  1596  1312 -9818.6629   47 7385 -9186.0000 -9848.3265  7.21%  2024 3707s
  1597  1313 -9814.8683   47 7345 -9186.0000 -9848.3265  7.21%  2034 3729s
  1598  1313 -9816.2671   48 7373 -9186.0000 -9848.3265  7.21%  2035 3735s
  1600  1315 -9813.7999   49 7319 -9186.0000 -9848.3265  7.21%  2041 3751s
  1601  1315 -9812.5780   49 7354 -9186.0000 -9848.3265  7.21%  2041 3756s
  1602  1316 -9812.1791   50 7268 -9186.0000 -9848.3265  7.21%  2046 3767s
  1603  1317 -9810.5984   50 7291 -9186.0000 -9848.3265  7.21%  2047 3773s
  1604  1317 -9809.8962   51 7256 -9186.0000 -9848.3265  7.21%  2050 3782s
  1605  1318 -9809.9135   51 7239 -9186.0000 -9848.3265  7.21%  2054 3793s
  1606  1319 -9807.7565   52 7235 -9186.0000 -9848.3265  7.21%  2055 3796s
  1607  1319 -9805.0961   52 7228 -9186.0000 -9848.3265  7.21%  2061 3812s
  1608  1320 -9805.3673   53 7224 -9186.0000 -9848.3265  7.21%  2062 3815s
  1609  1321 -9802.3961   53 7219 -9186.0000 -9848.3265  7.21%  2063 3821s
  1610  1321 -9802.0649   54 7163 -9186.0000 -9848.3265  7.21%  2069 3834s
  1611  1322 -9801.9941   54 7166 -9186.0000 -9848.3265  7.21%  2075 3848s
  1612  1323 -9799.4133   55 7139 -9186.0000 -9848.3265  7.21%  2076 3854s
  1613  1323 -9798.4121   55 7147 -9186.0000 -9848.3265  7.21%  2078 3860s
  1614  1324 -9796.5405   56 7116 -9186.0000 -9848.3265  7.21%  2082 3870s
  1616  1325 -9794.9241   57 7103 -9186.0000 -9848.3265  7.21%  2085 3882s
  1617  1326 -9792.8170   57 7111 -9186.0000 -9848.3265  7.21%  2085 3886s
  1618  1327 -9791.9863   58 7067 -9186.0000 -9848.3265  7.21%  2090 3897s
  1619  1327 -9791.1331   58 7077 -9186.0000 -9848.3265  7.21%  2095 3908s
  1620  1328 -9788.8715   59 7048 -9186.0000 -9848.3265  7.21%  2096 3915s
  1621  1329 -9788.7751   59 7062 -9186.0000 -9848.3265  7.21%  2102 3926s
  1622  1329 -9785.3905   60 7039 -9186.0000 -9848.3265  7.21%  2102 3930s
  1624  1331 -9784.5741   61 7008 -9186.0000 -9848.3265  7.21%  2105 3940s
  1625  1331 -9782.7443   61 7024 -9186.0000 -9848.3265  7.21%  2105 3945s
  1626  1332 -9781.6619   62 6993 -9186.0000 -9848.3265  7.21%  2109 3953s
  1627  1333 -9779.1079   62 7017 -9186.0000 -9848.3265  7.21%  2109 3956s
  1628  1333 -9779.3347   63 7002 -9186.0000 -9848.3265  7.21%  2110 3961s
  1629  1334 -9778.2657   63 6987 -9186.0000 -9848.3265  7.21%  2115 3972s
  1630  1335 -9777.3054   64 6970 -9186.0000 -9848.3265  7.21%  2118 3979s
  1631  1335 -9775.6802   64 6986 -9186.0000 -9848.3265  7.21%  2118 3983s
  1632  1336 -9774.6230   65 6943 -9186.0000 -9848.3265  7.21%  2119 3986s
  1633  1337 -9770.2642   65 6946 -9186.0000 -9848.3265  7.21%  2126 4002s
  1634  1337 -9772.6292   66 6954 -9186.0000 -9848.3265  7.21%  2127 4005s
  1635  1338 -9769.1035   66 6936 -9186.0000 -9848.3265  7.21%  2133 4018s
  1636  1339 -9769.8378   67 6927 -9186.0000 -9848.3265  7.21%  2134 4022s
  1637  1339 -9769.9391   67 6932 -9186.0000 -9848.3265  7.21%  2134 4026s
  1639  1341 -9765.8387   68 6916 -9186.0000 -9848.3265  7.21%  2134 4031s
  1641  1342 -9762.9373   69 6931 -9186.0000 -9848.3265  7.21%  2134 4036s
  1643  1343 -9764.4042   70 6915 -9186.0000 -9848.3265  7.21%  2133 4041s
  1645  1345 -9763.1635   71 6829 -9186.0000 -9848.3265  7.21%  2137 4052s
  1647  1346 -9761.6771   72 6873 -9186.0000 -9848.3265  7.21%  2137 4057s
  1649  1347 -9760.1335   73 6869 -9186.0000 -9848.3265  7.21%  2136 4061s
  1650  1348 -9755.8468   74 6839 -9186.0000 -9848.3265  7.21%  2137 4065s
  1652  1349 -9755.4496   75 6830 -9186.0000 -9848.3265  7.21%  2140 4074s
  1653  1350 -9753.3493   75 6829 -9186.0000 -9848.3265  7.21%  2140 4078s
  1654  1351 -9751.3933   76 6801 -9186.0000 -9848.3265  7.21%  2144 4085s
  1655  1351 -9753.2008   76 6811 -9186.0000 -9848.3265  7.21%  2146 4092s

Cutting planes:
  Gomory: 43
  MIR: 256
  Flow cover: 3296
  Zero half: 910
  Mod-K: 16
  RLT: 266
  BQP: 427

Explored 1657 nodes (3571874 simplex iterations) in 4096.03 seconds (5623.06 work units)
Thread count was 1 (of 72 available processors)

Solution count 4: -9186 -9112 -2600 0 

Time limit reached
Best objective -9.186000000000e+03, best bound -9.848000000000e+03, gap 7.2066%

User-callback calls 77799, time in user-callback 0.35 sec

BQP_SOLUTION, 1532, 6829, -3235.000000, 4096.025794, -1, 1, 1, 1, -1, -1, 1, -1, 1, 1, -1, 1, 1, -1, -1, -1, 1, 1, -1, 1, 1, -1, -1, 1, 1, 1, -1, 1, -1, 1, -1, 1, 1, 1, -1, 1, 1, -1, -1, -1, -1, 1, 1, -1, -1, -1, 1, -1, 1, 1, -1, -1, -1, -1, -1, 1, -1, 1, -1, 1, 1, 1, -1, -1, 1, 1, 1, -1, 1, 1, -1, -1, 1, 1, -1, -1, 1, 1, -1, -1, 1, 1, 1, -1, -1, 1, -1, -1, -1, 1, 1, -1, -1, -1, 1, 1, 1, -1, 1, -1, 1, -1, -1, 1, -1, 1, -1, -1, -1, -1, -1, 1, 1, 1, 1, -1, -1, -1, -1, -1, -1, 1, -1, 1, 1, -1, -1, -1, -1, 1, -1, -1, -1, 1, -1, -1, -1, -1, -1, -1, 1, 1, -1, -1, 1, 1, -1, -1, 1, -1, -1, -1, -1, 1, -1, -1, 1, 1, 1, -1, -1, 1, 1, -1, -1, -1, 1, -1, 1, -1, 1, -1, 1, 1, -1, 1, 1, 1, -1, 1, 1, -1, 1, -1, -1, 1, -1, -1, -1, -1, 1, -1, 1, -1, 1, -1, -1, 1, -1, -1, -1, 1, 1, -1, 1, 1, -1, -1, -1, -1, 1, -1, -1, 1, 1, -1, -1, 1, -1, -1, -1, 1, 1, 1, 1, 1, -1, -1, -1, 1, 1, 1, -1, 1, -1, -1, -1, 1, 1, 1, -1, 1, -1, -1, -1, 1, -1, 1, -1, 1, -1, -1, -1, 1, 1, -1, -1, 1, -1, -1, -1, 1, 1, -1, 1, 1, -1, -1, -1, 1, -1, -1, 1, 1, -1, -1, 1, 1, 1, 1, -1, 1, -1, -1, 1, 1, -1, -1, 1, 1, -1, 1, 1, 1, -1, -1, 1, -1, -1, 1, 1, -1, 1, -1, 1, -1, -1, 1, 1, -1, 1, 1, 1, -1, -1, 1, -1, 1, -1, -1, 1, -1, -1, -1, 1, -1, 1, 1, 1, -1, -1, 1, 1, -1, 1, 1, 1, -1, -1, -1, 1, -1, -1, 1, 1, -1, -1, -1, 1, -1, 1, 1, 1, -1, 1, -1, 1, -1, 1, -1, 1, 1, -1, -1, -1, -1, 1, 1, 1, 1, 1, -1, 1, -1, -1, 1, 1, 1, -1, -1, 1, -1, 1, 1, 1, -1, -1, -1, 1, -1, -1, 1, 1, -1, 1, -1, -1, -1, 1, 1, 1, 1, -1, -1, 1, -1, 1, 1, 1, -1, 1, 1, -1, -1, -1, 1, 1, 1, -1, -1, -1, -1, 1, 1, 1, 1, 1, 1, -1, 1, -1, 1, 1, -1, -1, 1, -1, -1, -1, 1, 1, 1, -1, 1, -1, -1, -1, -1, 1, 1, -1, 1, -1, 1, -1, -1, 1, 1, -1, 1, 1, -1, -1, -1, 1, 1, 1, -1, 1, -1, 1, 1, -1, 1, 1, 1, -1, 1, -1, 1, 1, -1, -1, 1, 1, -1, -1, 1, 1, 1, -1, 1, -1, 1, -1, 1, 1, 1, -1, 1, 1, 1, -1, -1, 1, 1, -1, 1, 1, -1, -1, -1, -1, 1, -1, 1, 1, 1, -1, 1, 1, 1, -1, 1, 1, 1, 1, -1, 1, -1, -1, 1, 1, 1, 1, -1, 1, -1, -1, 1, 1, 1, -1, -1, -1, 1, -1, -1, 1, 1, 1, -1, 1, 1, -1, -1, 1, 1, 1, 1, -1, 1, -1, -1, -1, 1, 1, -1, -1, -1, -1, 1, 1, 1, 1, -1, -1, -1, -1, -1, 1, 1, 1, -1, 1, -1, -1, -1, -1, 1, -1, -1, -1, -1, -1, 1, -1, 1, 1, 1, -1, -1, -1, 1, -1, 1, 1, -1, -1, -1, -1, 1, -1, 1, 1, 1, -1, -1, 1, -1, -1, 1, 1, 1, 1, -1, -1, 1, -1, 1, 1, 1, -1, -1, 1, 1, -1, 1, 1, 1, 1, -1, -1, 1, -1, -1, 1, 1, 1, 1, 1, 1, -1, -1, 1, 1, -1, 1, 1, 1, 1, -1, 1, -1, 1, 1, 1, -1, 1, -1, 1, 1, 1, -1, 1, 1, -1, 1, 1, 1, 1, 1, 1, -1, -1, 1, 1, 1, -1, 1, 1, -1, -1, 1, -1, 1, 1, -1, 1, -1, -1, 1, -1, 1, 1, 1, 1, -1, -1, 1, 1, 1, 1, 1, 1, 1, -1, 1, -1, -1, -1, -1, 1, 1, -1, 1, -1, 1, 1, -1, -1, 1, -1, 1, 1, -1, 1, -1, -1, 1, -1, 1, -1, -1, 1, -1, 1, 1, -1, 1, 1, -1, 1, -1, 1, 1, -1, 1, -1, 1, -1, -1, 1, 1, -1, 1, 1, 1, 1, -1, 1, 1, -1, 1, -1, 1, -1, 1, -1, 1, 1, -1, 1, 1, 1, -1, 1, 1, -1, 1, 1, 1, 1, -1, -1, 1, -1, 1, 1, 1, 1, -1, 1, -1, 1, 1, 1, 1, -1, -1, 1, -1, 1, 1, -1, 1, -1, -1, -1, -1, 1, -1, -1, 1, 1, -1, 1, -1, -1, -1, 1, -1, 1, -1, 1, 1, 1, 1, -1, 1, 1, -1, 1, -1, 1, -1, -1, 1, -1, -1, -1, 1, -1, -1, -1, -1, 1, -1, 1, 1, 1, -1, -1, -1, -1, -1, 1, -1, 1, 1, -1, -1, -1, 1, -1, -1, 1, -1, -1, -1, -1, -1, 1, -1, 1, -1, 1, -1, -1, 1, 1, -1, 1, -1, -1, 1, -1, 1, 1, -1, -1, -1, -1, -1, -1, -1, -1, 1, 1, -1, -1, -1, -1, 1, -1, 1, -1, -1, -1, -1, -1, -1, -1, 1, 1, -1, 1, 1, -1, -1, -1, 1, 1, -1, -1, -1, -1, 1, -1, 1, -1, 1, -1, 1, 1, -1, -1, 1, -1, 1, -1, 1, 1, -1, -1, 1, -1, 1, -1, 1, -1, -1, 1, -1, 1, -1, 1, 1, -1, -1, 1, -1, -1, -1, 1, -1, 1, 1, 1, 1, -1, 1, 1, 1, 1, -1, 1, 1, 1, 1, -1, 1, -1, -1, 1, 1, -1, -1, -1, 1, -1, 1, 1, -1, 1, 1, 1, 1, 1, -1, 1, 1, 1, 1, 1, 1, -1, 1, -1, 1, 1, 1, 1, 1, -1, -1, 1, -1, 1, 1, -1, 1, 1, 1, 1, 1, -1, 1, 1, 1, 1, 1, 1, -1, 1, 1, 1, 1, 1, 1, 1, -1, 1, 1, 1, -1, 1, 1, -1, 1, 1, -1, 1, 1, -1, 1, -1, 1, 1, 1, 1, 1, 1, 1, 1, 1, 1, 1, 1, -1, 1, 1, -1, 1, -1, 1, 1, 1, 1, 1, 1, 1, 1, -1, 1, 1, -1, 1, -1, 1, -1, 1, 1, 1, -1, 1, -1, 1, -1, 1, 1, 1, 1, 1, 1, -1, 1, 1, 1, 1, -1, 1, 1, -1, -1, 1, 1, 1, 1, 1, -1, 1, -1, 1, 1, 1, -1, 1, -1, 1, 1, -1, 1, 1, -1, 1, -1, -1, -1, 1, 1, 1, -1, 1, -1, -1, 1, -1, 1, 1, 1, -1, 1, 1, 1, 1, 1, 1, -1, -1, 1, -1, 1, -1, 1, 1, -1, 1, -1, 1, 1, -1, 1, 1, -1, -1, -1, -1, 1, 1, 1, -1, 1, -1, -1, -1, 1, -1, 1, -1, 1, -1, 1, -1, -1, 1, 1, 1, 1, -1, -1, -1, 1, 1, 1, -1, -1, -1, 1, -1, -1, -1, 1, -1, 1, -1, 1, -1, 1, 1, -1, -1, 1, -1, 1, -1, 1, -1, 1, -1, 1, -1, 1, -1, -1, 1, -1, 1, -1, 1, -1, -1, -1, 1, -1, -1, -1, 1, 1, -1, -1, 1, -1, -1, 1, -1, 1, -1, 1, -1, 1, 1, -1, -1, 1, 1, -1, -1, -1, -1, 1, 1, 1, -1, 1, 1, -1, 1, -1, -1, 1, -1, 1, 1, -1, -1, 1, -1, 1, 1, 1, -1, -1, -1, 1, -1, 1, 1, 1, 1, -1, 1, 1, -1, 1, 1, 1, 1, -1, -1, 1, -1, 1, 1, 1, 1, -1, 1, 1, -1, 1, 1, 1, 1, -1, 1, 1, -1, -1, 1, 1, -1, 1, 1, -1, -1, -1, 1, 1, -1, 1, 1, -1, -1, 1, 1, 1, -1, -1, 1, 1, -1, 1, 1, 1, -1, 1, 1, -1, -1, 1, 1, 1, -1, -1, 1, 1, 1, -1, 1, 1, 1, -1, 1, -1, -1, 1, 1, 1, 1, 1, 1, 1, -1, -1, 1, 1, 1, -1, 1, 1, -1, -1, 1, 1, 1, -1, 1, 1, -1, -1, 1, 1, -1, 1, 1, 1, -1, -1, 1, 1, 1, 1, -1, 1, -1, -1, -1, 1, 1, 1, -1, 1, -1, -1, -1, 1, -1, -1, 1, 1, -1, 1, -1, 1, 1, 1, 1, 1, -1, -1, -1, 1, -1, 1, -1, 1, -1, -1, -1, 1, 1, 1, -1, 1, -1, -1, -1, -1, -1, 1, -1, 1, 1, -1, -1, 1, 1, 1, -1, 1, -1, -1, -1, -1, 1, 1, -1, 1, 1, -1, 1, -1, 1, 1, -1, 1, -1, 1, -1, -1, 1, -1, 1, 1, 1, -1, -1, 1, 1, -1, 1, 1, 1, -1, -1, 1, -1, -1, 1, -1, 1, 1, -1, 1, 1, 1, -1, 1, 1, -1, 1
BQP_DATA, 1532, 6829, -3235.000000, -3897.000000, -9186.000000, -9848.000000, 4096.025794, 4521, 1657
